(set-info :smt-lib-version 2.6)
(set-logic QF_NIA)
(set-info :source |
Generated by: Cristina Borralleras, Daniel Larraz, Albert Oliveras, Enric Rodriguez-Carbonell, Albert Rubio
Generated on: 2017-04-27
Generator: VeryMax
Application: Termination proving
Target solver: barcelogic
|)
(set-info :license "https://creativecommons.org/licenses/by/4.0/")
(set-info :category "industrial")
(set-info :status sat)
(declare-fun Nl3arg11 () Int)
(declare-fun Nl3arg21 () Int)
(declare-fun Nl3arg31 () Int)
(declare-fun Nl3arg41 () Int)
(declare-fun Nl3arg12 () Int)
(declare-fun Nl3arg22 () Int)
(declare-fun Nl3arg32 () Int)
(declare-fun Nl3arg42 () Int)
(declare-fun lam0n0 () Int)
(declare-fun lam0n1 () Int)
(declare-fun lam0n2 () Int)
(declare-fun lam0n3 () Int)
(declare-fun lam0n4 () Int)
(declare-fun lam0n5 () Int)
(declare-fun lam0n6 () Int)
(declare-fun lam0n7 () Int)
(declare-fun lam0n8 () Int)
(declare-fun Nl3CT1 () Int)
(declare-fun Nl3CT2 () Int)
(declare-fun lam1n0 () Int)
(declare-fun lam1n1 () Int)
(declare-fun lam1n2 () Int)
(declare-fun lam1n3 () Int)
(declare-fun lam1n4 () Int)
(declare-fun lam1n5 () Int)
(declare-fun lam1n6 () Int)
(declare-fun lam1n7 () Int)
(declare-fun lam1n8 () Int)
(declare-fun lam2n0 () Int)
(declare-fun lam2n1 () Int)
(declare-fun lam2n2 () Int)
(declare-fun lam2n3 () Int)
(declare-fun lam2n4 () Int)
(declare-fun lam2n5 () Int)
(declare-fun lam2n6 () Int)
(declare-fun lam2n7 () Int)
(declare-fun lam2n8 () Int)
(declare-fun lam3n0 () Int)
(declare-fun lam3n1 () Int)
(declare-fun lam3n2 () Int)
(declare-fun lam4n0 () Int)
(declare-fun lam4n1 () Int)
(declare-fun lam4n2 () Int)
(declare-fun lam5n0 () Int)
(declare-fun lam5n1 () Int)
(declare-fun lam5n2 () Int)
(declare-fun lam5n3 () Int)
(declare-fun lam5n4 () Int)
(declare-fun lam5n5 () Int)
(declare-fun lam5n6 () Int)
(declare-fun lam5n7 () Int)
(declare-fun lam5n8 () Int)
(declare-fun lam6n0 () Int)
(declare-fun lam6n1 () Int)
(declare-fun lam6n2 () Int)
(declare-fun lam6n3 () Int)
(declare-fun lam6n4 () Int)
(declare-fun lam6n5 () Int)
(declare-fun lam6n6 () Int)
(declare-fun lam6n7 () Int)
(declare-fun lam6n8 () Int)
(declare-fun lam7n0 () Int)
(declare-fun lam7n1 () Int)
(declare-fun lam7n2 () Int)
(declare-fun lam7n3 () Int)
(declare-fun lam7n4 () Int)
(declare-fun lam7n5 () Int)
(declare-fun lam7n6 () Int)
(declare-fun lam7n7 () Int)
(declare-fun lam8n0 () Int)
(declare-fun lam8n1 () Int)
(declare-fun lam8n2 () Int)
(declare-fun lam8n3 () Int)
(declare-fun lam8n4 () Int)
(declare-fun lam8n5 () Int)
(declare-fun lam8n6 () Int)
(declare-fun lam8n7 () Int)
(declare-fun lam9n0 () Int)
(declare-fun lam9n1 () Int)
(declare-fun lam9n2 () Int)
(declare-fun lam9n3 () Int)
(declare-fun lam9n4 () Int)
(declare-fun lam9n5 () Int)
(declare-fun lam9n6 () Int)
(declare-fun lam9n7 () Int)
(declare-fun lam10n0 () Int)
(declare-fun lam10n1 () Int)
(declare-fun lam10n2 () Int)
(declare-fun lam10n3 () Int)
(declare-fun lam10n4 () Int)
(declare-fun lam10n5 () Int)
(declare-fun lam10n6 () Int)
(declare-fun lam10n7 () Int)
(declare-fun undef11 () Int)
(declare-fun undef9 () Int)
(declare-fun undef10 () Int)
(declare-fun undef12 () Int)
(declare-fun arg1 () Int)
(declare-fun undef41 () Int)
(declare-fun undef42 () Int)
(declare-fun arg2 () Int)
(declare-fun undef43 () Int)
(declare-fun undef44 () Int)
(declare-fun undef57 () Int)
(declare-fun undef45 () Int)
(declare-fun undef58 () Int)
(declare-fun undef59 () Int)
(declare-fun undef60 () Int)
(declare-fun undef49 () Int)
(declare-fun lam14n0 () Int)
(declare-fun lam14n1 () Int)
(declare-fun lam14n2 () Int)
(declare-fun lam14n3 () Int)
(declare-fun lam14n4 () Int)
(declare-fun lam14n5 () Int)
(declare-fun lam14n6 () Int)
(declare-fun lam14n7 () Int)
(declare-fun lam14n8 () Int)
(declare-fun RFN1_CT () Int)
(declare-fun RFN1_arg1 () Int)
(declare-fun RFN1_arg2 () Int)
(declare-fun RFN1_arg3 () Int)
(declare-fun RFN1_arg4 () Int)
(declare-fun lam12n0 () Int)
(declare-fun lam12n1 () Int)
(declare-fun lam12n2 () Int)
(declare-fun lam12n3 () Int)
(declare-fun lam12n4 () Int)
(declare-fun lam12n5 () Int)
(declare-fun lam12n6 () Int)
(declare-fun lam12n7 () Int)
(declare-fun lam12n8 () Int)
(declare-fun lam13n0 () Int)
(declare-fun lam13n1 () Int)
(declare-fun lam13n2 () Int)
(declare-fun lam13n3 () Int)
(declare-fun lam13n4 () Int)
(declare-fun lam13n5 () Int)
(declare-fun lam13n6 () Int)
(declare-fun lam13n7 () Int)
(declare-fun lam13n8 () Int)
(declare-fun lam11n0 () Int)
(declare-fun lam11n1 () Int)
(declare-fun lam11n2 () Int)
(declare-fun lam11n3 () Int)
(declare-fun lam11n4 () Int)
(declare-fun lam11n5 () Int)
(declare-fun lam11n6 () Int)
(declare-fun lam11n7 () Int)
(declare-fun lam11n8 () Int)
(assert ( and ( <= ( - 1 ) Nl3arg11 ) ( <= Nl3arg11 1 ) ( <= ( - 1 ) Nl3arg21 ) ( <= Nl3arg21 1 ) ( <= ( - 1 ) Nl3arg31 ) ( <= Nl3arg31 1 ) ( <= ( - 1 ) Nl3arg41 ) ( <= Nl3arg41 1 ) ( <= ( - 1 ) Nl3arg12 ) ( <= Nl3arg12 1 ) ( <= ( - 1 ) Nl3arg22 ) ( <= Nl3arg22 1 ) ( <= ( - 1 ) Nl3arg32 ) ( <= Nl3arg32 1 ) ( <= ( - 1 ) Nl3arg42 ) ( <= Nl3arg42 1 ) ))
(assert ( or ( and ( >= lam0n0 0 ) ( >= lam0n1 0 ) ( >= lam0n2 0 ) ( >= lam0n3 0 ) ( >= lam0n4 0 ) ( >= lam0n5 0 ) ( >= lam0n6 0 ) ( >= lam0n7 0 ) ( >= lam0n8 0 ) ( > ( + ( * 3 lam0n0 ) ( * 1 lam0n1 ) ( * 1 lam0n2 ) ( * 1 lam0n3 ) ( * 1 lam0n4 ) ( * Nl3CT1 lam0n7 ) ( * Nl3CT2 lam0n8 ) ( - 1 ) ) 0 ) ( = ( + ( * ( - 1 ) lam0n0 ) ( * Nl3arg11 lam0n7 ) ( * Nl3arg12 lam0n8 ) ) 0 ) ( = ( + ( * ( - 1 ) lam0n1 ) ( * ( - 1 ) lam0n5 ) ( * Nl3arg21 lam0n7 ) ( * Nl3arg22 lam0n8 ) ) 0 ) ( = ( + ( * ( - 1 ) lam0n2 ) ( * Nl3arg31 lam0n7 ) ( * Nl3arg32 lam0n8 ) ) 0 ) ( = ( + ( * Nl3arg41 lam0n7 ) ( * Nl3arg42 lam0n8 ) ) 0 ) ( = ( * ( - 1 ) lam0n3 ) 0 ) ( = ( + ( * ( - 1 ) lam0n4 ) ( * 1 lam0n5 ) ) 0 ) ( = ( * ( - 1 ) lam0n6 ) 0 ) ) ( and ( >= lam1n0 0 ) ( >= lam1n1 0 ) ( >= lam1n2 0 ) ( >= lam1n3 0 ) ( >= lam1n4 0 ) ( >= lam1n5 0 ) ( >= lam1n6 0 ) ( >= lam1n7 0 ) ( >= lam1n8 0 ) ( > ( + ( * 3 lam1n0 ) ( * 1 lam1n1 ) ( * 1 lam1n2 ) ( * 1 lam1n3 ) ( * 1 lam1n4 ) ( * Nl3CT1 lam1n7 ) ( * Nl3CT2 lam1n8 ) ( - 1 ( + ( + ( + ( + Nl3CT1 ( * Nl3arg11 0 ) ) ( * Nl3arg21 0 ) ) ( * Nl3arg31 0 ) ) ( * Nl3arg41 0 ) ) ) ) 0 ) ( = ( + ( * ( - 1 ) lam1n0 ) ( * Nl3arg11 lam1n7 ) ( * Nl3arg12 lam1n8 ) ) 0 ) ( = ( + ( * ( - 1 ) lam1n1 ) ( * ( - 1 ) lam1n5 ) ( * Nl3arg21 lam1n7 ) ( * Nl3arg22 lam1n8 ) ) 0 ) ( = ( + ( * ( - 1 ) lam1n2 ) ( * Nl3arg31 lam1n7 ) ( * Nl3arg32 lam1n8 ) ) 0 ) ( = ( + ( * Nl3arg41 lam1n7 ) ( * Nl3arg42 lam1n8 ) ) 0 ) ( = ( + ( * ( - 1 ) lam1n3 ) ( - ( + 0 ( * Nl3arg11 1 ) ) ) ) 0 ) ( = ( + ( * ( - 1 ) lam1n4 ) ( * 1 lam1n5 ) ( - ( + 0 ( * Nl3arg21 1 ) ) ) ) 0 ) ( = ( + ( * ( - 1 ) lam1n6 ) ( - ( + 0 ( * Nl3arg31 1 ) ) ) ) 0 ) ( = ( - ( + 0 ( * Nl3arg41 1 ) ) ) 0 ) ) ))
(assert ( or ( and ( >= lam0n0 0 ) ( >= lam0n1 0 ) ( >= lam0n2 0 ) ( >= lam0n3 0 ) ( >= lam0n4 0 ) ( >= lam0n5 0 ) ( >= lam0n6 0 ) ( >= lam0n7 0 ) ( >= lam0n8 0 ) ( > ( + ( * 3 lam0n0 ) ( * 1 lam0n1 ) ( * 1 lam0n2 ) ( * 1 lam0n3 ) ( * 1 lam0n4 ) ( * Nl3CT1 lam0n7 ) ( * Nl3CT2 lam0n8 ) ( - 1 ) ) 0 ) ( = ( + ( * ( - 1 ) lam0n0 ) ( * Nl3arg11 lam0n7 ) ( * Nl3arg12 lam0n8 ) ) 0 ) ( = ( + ( * ( - 1 ) lam0n1 ) ( * ( - 1 ) lam0n5 ) ( * Nl3arg21 lam0n7 ) ( * Nl3arg22 lam0n8 ) ) 0 ) ( = ( + ( * ( - 1 ) lam0n2 ) ( * Nl3arg31 lam0n7 ) ( * Nl3arg32 lam0n8 ) ) 0 ) ( = ( + ( * Nl3arg41 lam0n7 ) ( * Nl3arg42 lam0n8 ) ) 0 ) ( = ( * ( - 1 ) lam0n3 ) 0 ) ( = ( + ( * ( - 1 ) lam0n4 ) ( * 1 lam0n5 ) ) 0 ) ( = ( * ( - 1 ) lam0n6 ) 0 ) ) ( and ( >= lam2n0 0 ) ( >= lam2n1 0 ) ( >= lam2n2 0 ) ( >= lam2n3 0 ) ( >= lam2n4 0 ) ( >= lam2n5 0 ) ( >= lam2n6 0 ) ( >= lam2n7 0 ) ( >= lam2n8 0 ) ( > ( + ( * 3 lam2n0 ) ( * 1 lam2n1 ) ( * 1 lam2n2 ) ( * 1 lam2n3 ) ( * 1 lam2n4 ) ( * Nl3CT1 lam2n7 ) ( * Nl3CT2 lam2n8 ) ( - 1 ( + ( + ( + ( + Nl3CT2 ( * Nl3arg12 0 ) ) ( * Nl3arg22 0 ) ) ( * Nl3arg32 0 ) ) ( * Nl3arg42 0 ) ) ) ) 0 ) ( = ( + ( * ( - 1 ) lam2n0 ) ( * Nl3arg11 lam2n7 ) ( * Nl3arg12 lam2n8 ) ) 0 ) ( = ( + ( * ( - 1 ) lam2n1 ) ( * ( - 1 ) lam2n5 ) ( * Nl3arg21 lam2n7 ) ( * Nl3arg22 lam2n8 ) ) 0 ) ( = ( + ( * ( - 1 ) lam2n2 ) ( * Nl3arg31 lam2n7 ) ( * Nl3arg32 lam2n8 ) ) 0 ) ( = ( + ( * Nl3arg41 lam2n7 ) ( * Nl3arg42 lam2n8 ) ) 0 ) ( = ( + ( * ( - 1 ) lam2n3 ) ( - ( + 0 ( * Nl3arg12 1 ) ) ) ) 0 ) ( = ( + ( * ( - 1 ) lam2n4 ) ( * 1 lam2n5 ) ( - ( + 0 ( * Nl3arg22 1 ) ) ) ) 0 ) ( = ( + ( * ( - 1 ) lam2n6 ) ( - ( + 0 ( * Nl3arg32 1 ) ) ) ) 0 ) ( = ( - ( + 0 ( * Nl3arg42 1 ) ) ) 0 ) ) ))
(assert ( or ( and ( not ( <= undef11 0 ) ) ( <= ( + 4 ( * ( - 1 ) undef9 ) ) 0 ) ( <= ( + 5 ( * ( - 1 ) undef10 ) ) 0 ) ( <= ( + ( + ( + ( + ( + Nl3CT1 ( * Nl3arg11 0 ) ) ( * Nl3arg21 0 ) ) ( * Nl3arg31 0 ) ) ( * Nl3arg41 0 ) ) ( * ( + 0 ( * Nl3arg11 1 ) ) undef9 ) ( * ( + 0 ( * Nl3arg21 1 ) ) undef10 ) ( * ( + 0 ( * Nl3arg31 1 ) ) undef11 ) ( * ( + 0 ( * Nl3arg41 1 ) ) undef12 ) ) 0 ) ( <= ( + ( + ( + ( + ( + Nl3CT2 ( * Nl3arg12 0 ) ) ( * Nl3arg22 0 ) ) ( * Nl3arg32 0 ) ) ( * Nl3arg42 0 ) ) ( * ( + 0 ( * Nl3arg12 1 ) ) undef9 ) ( * ( + 0 ( * Nl3arg22 1 ) ) undef10 ) ( * ( + 0 ( * Nl3arg32 1 ) ) undef11 ) ( * ( + 0 ( * Nl3arg42 1 ) ) undef12 ) ) 0 ) ) ( and ( <= ( + 3 ( * ( - 1 ) arg1 ) ) 0 ) ( <= ( + 1 ( * ( - 1 ) arg1 ) undef41 ) 0 ) ( <= ( + 1 ( * ( - 1 ) arg1 ) undef42 ) 0 ) ( <= ( + 1 ( * ( - 1 ) arg2 ) ) 0 ) ( not ( <= undef43 0 ) ) ( <= ( + ( - 1 ) ( * ( - 1 ) arg2 ) undef41 ) 0 ) ( <= ( + ( - 1 ) ( * ( - 1 ) arg2 ) undef42 ) 0 ) ( <= ( + 2 ( * ( - 1 ) undef41 ) ) 0 ) ( <= ( + 2 ( * ( - 1 ) undef42 ) ) 0 ) ( <= ( + ( + ( + ( + ( + Nl3CT1 ( * Nl3arg11 0 ) ) ( * Nl3arg21 0 ) ) ( * Nl3arg31 0 ) ) ( * Nl3arg41 0 ) ) ( * ( + 0 ( * Nl3arg11 1 ) ) undef41 ) ( * ( + 0 ( * Nl3arg21 1 ) ) undef42 ) ( * ( + 0 ( * Nl3arg31 1 ) ) undef43 ) ( * ( + 0 ( * Nl3arg41 1 ) ) undef44 ) ) 0 ) ( <= ( + ( + ( + ( + ( + Nl3CT2 ( * Nl3arg12 0 ) ) ( * Nl3arg22 0 ) ) ( * Nl3arg32 0 ) ) ( * Nl3arg42 0 ) ) ( * ( + 0 ( * Nl3arg12 1 ) ) undef41 ) ( * ( + 0 ( * Nl3arg22 1 ) ) undef42 ) ( * ( + 0 ( * Nl3arg32 1 ) ) undef43 ) ( * ( + 0 ( * Nl3arg42 1 ) ) undef44 ) ) 0 ) ) ( and ( <= ( + 3 ( * ( - 1 ) arg1 ) ) 0 ) ( <= ( + 3 ( * ( - 1 ) undef57 ) ) 0 ) ( <= ( + 1 ( * ( - 1 ) arg2 ) ) 0 ) ( <= ( + 1 ( * ( - 1 ) undef45 ) undef58 ) 0 ) ( not ( <= undef59 0 ) ) ( <= ( + ( * ( - 1 ) undef45 ) undef57 ) 0 ) ( <= ( + 2 ( * ( - 1 ) undef58 ) ) 0 ) ( <= ( + 5 ( * ( - 1 ) undef45 ) ) 0 ) ( <= ( + ( + ( + ( + ( + Nl3CT1 ( * Nl3arg11 0 ) ) ( * Nl3arg21 0 ) ) ( * Nl3arg31 0 ) ) ( * Nl3arg41 0 ) ) ( * ( + 0 ( * Nl3arg11 1 ) ) undef57 ) ( * ( + 0 ( * Nl3arg21 1 ) ) undef58 ) ( * ( + 0 ( * Nl3arg31 1 ) ) undef59 ) ( * ( + 0 ( * Nl3arg41 1 ) ) undef60 ) ) 0 ) ( <= ( + ( + ( + ( + ( + Nl3CT2 ( * Nl3arg12 0 ) ) ( * Nl3arg22 0 ) ) ( * Nl3arg32 0 ) ) ( * Nl3arg42 0 ) ) ( * ( + 0 ( * Nl3arg12 1 ) ) undef57 ) ( * ( + 0 ( * Nl3arg22 1 ) ) undef58 ) ( * ( + 0 ( * Nl3arg32 1 ) ) undef59 ) ( * ( + 0 ( * Nl3arg42 1 ) ) undef60 ) ) 0 ) ) ( and ( <= ( + 3 ( * ( - 1 ) arg1 ) ) 0 ) ( <= ( + 3 ( * ( - 1 ) undef49 ) ) 0 ) ( <= ( + 3 ( * ( - 1 ) undef57 ) ) 0 ) ( <= ( + 1 ( * ( - 1 ) arg2 ) ) 0 ) ( <= ( + 1 ( * ( - 1 ) undef49 ) undef58 ) 0 ) ( not ( <= undef59 0 ) ) ( <= ( + ( * ( - 1 ) undef49 ) undef57 ) 0 ) ( <= ( + 2 ( * ( - 1 ) undef58 ) ) 0 ) ( <= ( + ( + ( + ( + ( + Nl3CT1 ( * Nl3arg11 0 ) ) ( * Nl3arg21 0 ) ) ( * Nl3arg31 0 ) ) ( * Nl3arg41 0 ) ) ( * ( + 0 ( * Nl3arg11 1 ) ) undef57 ) ( * ( + 0 ( * Nl3arg21 1 ) ) undef58 ) ( * ( + 0 ( * Nl3arg31 1 ) ) undef59 ) ( * ( + 0 ( * Nl3arg41 1 ) ) undef60 ) ) 0 ) ( <= ( + ( + ( + ( + ( + Nl3CT2 ( * Nl3arg12 0 ) ) ( * Nl3arg22 0 ) ) ( * Nl3arg32 0 ) ) ( * Nl3arg42 0 ) ) ( * ( + 0 ( * Nl3arg12 1 ) ) undef57 ) ( * ( + 0 ( * Nl3arg22 1 ) ) undef58 ) ( * ( + 0 ( * Nl3arg32 1 ) ) undef59 ) ( * ( + 0 ( * Nl3arg42 1 ) ) undef60 ) ) 0 ) ) ))
(assert ( or ( and ( and ( >= lam14n0 0 ) ( >= lam14n1 0 ) ( >= lam14n2 0 ) ( >= lam14n3 0 ) ( >= lam14n4 0 ) ( >= lam14n5 0 ) ( >= lam14n6 0 ) ( >= lam14n7 0 ) ( >= lam14n8 0 ) ( > ( + ( * 3 lam14n0 ) ( * 1 lam14n1 ) ( * 1 lam14n2 ) ( * 1 lam14n3 ) ( * 1 lam14n4 ) ( * Nl3CT1 lam14n7 ) ( * Nl3CT2 lam14n8 ) ( - 1 ( - ( + ( + ( + ( + RFN1_CT ( * RFN1_arg1 0 ) ) ( * RFN1_arg2 0 ) ) ( * RFN1_arg3 0 ) ) ( * RFN1_arg4 0 ) ) RFN1_CT ) ) ) 0 ) ( = ( + ( * ( - 1 ) lam14n0 ) ( * Nl3arg11 lam14n7 ) ( * Nl3arg12 lam14n8 ) ( - ( - RFN1_arg1 ) ) ) 0 ) ( = ( + ( * ( - 1 ) lam14n1 ) ( * ( - 1 ) lam14n5 ) ( * Nl3arg21 lam14n7 ) ( * Nl3arg22 lam14n8 ) ( - ( - RFN1_arg2 ) ) ) 0 ) ( = ( + ( * ( - 1 ) lam14n2 ) ( * Nl3arg31 lam14n7 ) ( * Nl3arg32 lam14n8 ) ( - ( - RFN1_arg3 ) ) ) 0 ) ( = ( + ( * Nl3arg41 lam14n7 ) ( * Nl3arg42 lam14n8 ) ( - ( - RFN1_arg4 ) ) ) 0 ) ( = ( + ( * ( - 1 ) lam14n3 ) ( - ( + 0 ( * RFN1_arg1 1 ) ) ) ) 0 ) ( = ( + ( * ( - 1 ) lam14n4 ) ( * 1 lam14n5 ) ( - ( + 0 ( * RFN1_arg2 1 ) ) ) ) 0 ) ( = ( + ( * ( - 1 ) lam14n6 ) ( - ( + 0 ( * RFN1_arg3 1 ) ) ) ) 0 ) ( = ( - ( + 0 ( * RFN1_arg4 1 ) ) ) 0 ) ) ( and ( and ( >= lam12n0 0 ) ( >= lam12n1 0 ) ( >= lam12n2 0 ) ( >= lam12n3 0 ) ( >= lam12n4 0 ) ( >= lam12n5 0 ) ( >= lam12n6 0 ) ( >= lam12n7 0 ) ( >= lam12n8 0 ) ( > ( + ( * 3 lam12n0 ) ( * 1 lam12n1 ) ( * 1 lam12n2 ) ( * 1 lam12n3 ) ( * 1 lam12n4 ) ( * Nl3CT1 lam12n7 ) ( * Nl3CT2 lam12n8 ) ( - 1 ( - RFN1_CT ) ) ) 0 ) ( = ( + ( * ( - 1 ) lam12n0 ) ( * Nl3arg11 lam12n7 ) ( * Nl3arg12 lam12n8 ) ( - ( - RFN1_arg1 ) ) ) 0 ) ( = ( + ( * ( - 1 ) lam12n1 ) ( * ( - 1 ) lam12n5 ) ( * Nl3arg21 lam12n7 ) ( * Nl3arg22 lam12n8 ) ( - ( - RFN1_arg2 ) ) ) 0 ) ( = ( + ( * ( - 1 ) lam12n2 ) ( * Nl3arg31 lam12n7 ) ( * Nl3arg32 lam12n8 ) ( - ( - RFN1_arg3 ) ) ) 0 ) ( = ( + ( * Nl3arg41 lam12n7 ) ( * Nl3arg42 lam12n8 ) ( - ( - RFN1_arg4 ) ) ) 0 ) ( = ( * ( - 1 ) lam12n3 ) 0 ) ( = ( + ( * ( - 1 ) lam12n4 ) ( * 1 lam12n5 ) ) 0 ) ( = ( * ( - 1 ) lam12n6 ) 0 ) ) ( and ( >= lam13n0 0 ) ( >= lam13n1 0 ) ( >= lam13n2 0 ) ( >= lam13n3 0 ) ( >= lam13n4 0 ) ( >= lam13n5 0 ) ( >= lam13n6 0 ) ( >= lam13n7 0 ) ( >= lam13n8 0 ) ( > ( + ( * 3 lam13n0 ) ( * 1 lam13n1 ) ( * 1 lam13n2 ) ( * 1 lam13n3 ) ( * 1 lam13n4 ) ( * Nl3CT1 lam13n7 ) ( * Nl3CT2 lam13n8 ) ( - 1 ( + ( - ( + ( + ( + ( + RFN1_CT ( * RFN1_arg1 0 ) ) ( * RFN1_arg2 0 ) ) ( * RFN1_arg3 0 ) ) ( * RFN1_arg4 0 ) ) RFN1_CT ) 1 ) ) ) 0 ) ( = ( + ( * ( - 1 ) lam13n0 ) ( * Nl3arg11 lam13n7 ) ( * Nl3arg12 lam13n8 ) ( - ( - RFN1_arg1 ) ) ) 0 ) ( = ( + ( * ( - 1 ) lam13n1 ) ( * ( - 1 ) lam13n5 ) ( * Nl3arg21 lam13n7 ) ( * Nl3arg22 lam13n8 ) ( - ( - RFN1_arg2 ) ) ) 0 ) ( = ( + ( * ( - 1 ) lam13n2 ) ( * Nl3arg31 lam13n7 ) ( * Nl3arg32 lam13n8 ) ( - ( - RFN1_arg3 ) ) ) 0 ) ( = ( + ( * Nl3arg41 lam13n7 ) ( * Nl3arg42 lam13n8 ) ( - ( - RFN1_arg4 ) ) ) 0 ) ( = ( + ( * ( - 1 ) lam13n3 ) ( - ( + 0 ( * RFN1_arg1 1 ) ) ) ) 0 ) ( = ( + ( * ( - 1 ) lam13n4 ) ( * 1 lam13n5 ) ( - ( + 0 ( * RFN1_arg2 1 ) ) ) ) 0 ) ( = ( + ( * ( - 1 ) lam13n6 ) ( - ( + 0 ( * RFN1_arg3 1 ) ) ) ) 0 ) ( = ( - ( + 0 ( * RFN1_arg4 1 ) ) ) 0 ) ) ) ) ( and ( >= lam11n0 0 ) ( >= lam11n1 0 ) ( >= lam11n2 0 ) ( >= lam11n3 0 ) ( >= lam11n4 0 ) ( >= lam11n5 0 ) ( >= lam11n6 0 ) ( >= lam11n7 0 ) ( >= lam11n8 0 ) ( > ( + ( * 3 lam11n0 ) ( * 1 lam11n1 ) ( * 1 lam11n2 ) ( * 1 lam11n3 ) ( * 1 lam11n4 ) ( * Nl3CT1 lam11n7 ) ( * Nl3CT2 lam11n8 ) ( - 1 ) ) 0 ) ( = ( + ( * ( - 1 ) lam11n0 ) ( * Nl3arg11 lam11n7 ) ( * Nl3arg12 lam11n8 ) ) 0 ) ( = ( + ( * ( - 1 ) lam11n1 ) ( * ( - 1 ) lam11n5 ) ( * Nl3arg21 lam11n7 ) ( * Nl3arg22 lam11n8 ) ) 0 ) ( = ( + ( * ( - 1 ) lam11n2 ) ( * Nl3arg31 lam11n7 ) ( * Nl3arg32 lam11n8 ) ) 0 ) ( = ( + ( * Nl3arg41 lam11n7 ) ( * Nl3arg42 lam11n8 ) ) 0 ) ( = ( * ( - 1 ) lam11n3 ) 0 ) ( = ( + ( * ( - 1 ) lam11n4 ) ( * 1 lam11n5 ) ) 0 ) ( = ( * ( - 1 ) lam11n6 ) 0 ) ) ))
(check-sat)
(exit)
